
Gurobi 13.0.2 (win64) logging started Thu Jul 23 16:16:51 2026

Set parameter LogFile to value "E:\codes\ExactEBRP\results\gf_gurobi_performance_recovery_round29\runs\stage2__moderate_seed4302__c3_replica__300s\external\native_logs\R.0.0.0.0.1.1.0.1.1_terminal_mip.gurobi.log"
Gurobi Optimizer version 13.0.2 build v13.0.2rc1 (win64 - Windows 10.0 (19045.2))

CPU model: 12th Gen Intel(R) Core(TM) i7-12700KF, instruction set [SSE2|AVX|AVX2]
Thread count: 12 physical cores, 20 logical processors, using up to 1 threads

Non-default parameters:
TimeLimit  2.2964991229999998e+02
MIPGap  0
MIPGapAbs  0
LogToConsole  0
Threads  1

Optimize a model with 11919 rows, 3378 columns and 67378 nonzeros (Min)
Model fingerprint: 0xea8d7c8a
Model has 21 linear objective coefficients
Variable types: 1686 continuous, 1692 integer (1492 binary)
Coefficient statistics:
  Matrix range     [3e-03, 2e+04]
  Objective range  [7e-03, 1e+00]
  Bounds range     [3e-03, 1e+02]
  RHS range        [3e-03, 5e+04]

Presolve removed 7518 rows and 1283 columns
Presolve time: 0.29s
Presolved: 4401 rows, 2095 columns, 36682 nonzeros
Variable types: 1016 continuous, 1079 integer (1005 binary)

Root relaxation: objective 3.169927e-03, 1204 iterations, 0.04 seconds (0.11 work units)

    Nodes    |    Current Node    |     Objective Bounds      |     Work
 Expl Unexpl |  Obj  Depth IntInf | Incumbent    BestBd   Gap | It/Node Time

     0     0    0.00317    0  181          -    0.00317      -     -    0s
     0     0    0.00317    0  192          -    0.00317      -     -    0s
     0     0    0.00317    0  211          -    0.00317      -     -    0s
     0     0 infeasible    0               - infeasible      -     -    1s

Cutting planes:
  Learned: 5
  Cover: 6
  Implied bound: 81
  Clique: 8
  MIR: 26
  StrongCG: 2
  Flow cover: 39
  GUB cover: 4
  Zero half: 23
  Network: 7
  RLT: 12
  Relax-and-lift: 36
  BQP: 3

Explored 1 nodes (3968 simplex iterations) in 1.01 seconds (1.71 work units)
Thread count was 1 (of 20 available processors)

Solution count 0

Model is infeasible
Best objective -, best bound -, gap -

User-callback calls 1105, time in user-callback 0.00 sec
